p cnf 53 709
17 18 19 20 21 22 23 24 25 26 27 28 0
-17 -18 0
-17 -19 0
-17 -20 0
-17 -21 0
-17 -22 0
-17 -23 0
-17 -24 0
-17 -25 0
-17 -26 0
-17 -27 0
-17 -28 0
-18 -19 0
-18 -20 0
-18 -21 0
-18 -22 0
-18 -23 0
-18 -24 0
-18 -25 0
-18 -26 0
-18 -27 0
-18 -28 0
-19 -20 0
-19 -21 0
-19 -22 0
-19 -23 0
-19 -24 0
-19 -25 0
-19 -26 0
-19 -27 0
-19 -28 0
-20 -21 0
-20 -22 0
-20 -23 0
-20 -24 0
-20 -25 0
-20 -26 0
-20 -27 0
-20 -28 0
-21 -22 0
-21 -23 0
-21 -24 0
-21 -25 0
-21 -26 0
-21 -27 0
-21 -28 0
-22 -23 0
-22 -24 0
-22 -25 0
-22 -26 0
-22 -27 0
-22 -28 0
-23 -24 0
-23 -25 0
-23 -26 0
-23 -27 0
-23 -28 0
-24 -25 0
-24 -26 0
-24 -27 0
-24 -28 0
-25 -26 0
-25 -27 0
-25 -28 0
-26 -27 0
-26 -28 0
-27 -28 0
-17 -1 0
-17 -2 0
-17 -3 0
-17 4 0
-17 -5 0
-17 -6 0
-17 -7 0
-17 8 0
-18 -1 0
-18 2 0
-18 -3 0
-18 -4 0
-18 -5 0
-18 6 0
-18 -7 0
-18 -8 0
-19 -1 0
-19 -2 0
-19 3 0
-19 -4 0
-19 -5 0
-19 -6 0
-19 7 0
-19 -8 0
-20 1 0
-20 -2 0
-20 -3 0
-20 -4 0
-20 5 0
-20 -6 0
-20 -7 0
-20 -8 0
-21 -1 0
-21 -2 0
-21 -3 0
-21 -4 0
-21 -5 0
-21 6 0
-21 -7 0
-21 8 0
-22 -1 0
-22 2 0
-22 -3 0
-22 4 0
-22 -5 0
-22 -6 0
-22 -7 0
-22 -8 0
-23 -1 0
-23 -2 0
-23 -3 0
-23 -4 0
-23 5 0
-23 -6 0
-23 7 0
-23 -8 0
-24 1 0
-24 -2 0
-24 3 0
-24 -4 0
-24 -5 0
-24 -6 0
-24 -7 0
-24 -8 0
-25 -1 0
-25 -2 0
-25 -3 0
-25 -4 0
-25 -5 0
-25 -6 0
-25 7 0
-25 8 0
-26 -1 0
-26 -2 0
-26 3 0
-26 4 0
-26 -5 0
-26 -6 0
-26 -7 0
-26 -8 0
-27 -1 0
-27 -2 0
-27 -3 0
-27 -4 0
-27 5 0
-27 6 0
-27 -7 0
-27 -8 0
-28 1 0
-28 2 0
-28 -3 0
-28 -4 0
-28 -5 0
-28 -6 0
-28 -7 0
-28 -8 0
29 30 31 32 33 34 35 36 37 38 39 40 41 42 43 44 45 46 47 48 49 50 51 52 0
-29 -30 0
-29 -31 0
-29 -32 0
-29 -33 0
-29 -34 0
-29 -35 0
-29 -36 0
-29 -37 0
-29 -38 0
-29 -39 0
-29 -40 0
-29 -41 0
-29 -42 0
-29 -43 0
-29 -44 0
-29 -45 0
-29 -46 0
-29 -47 0
-29 -48 0
-29 -49 0
-29 -50 0
-29 -51 0
-29 -52 0
-30 -31 0
-30 -32 0
-30 -33 0
-30 -34 0
-30 -35 0
-30 -36 0
-30 -37 0
-30 -38 0
-30 -39 0
-30 -40 0
-30 -41 0
-30 -42 0
-30 -43 0
-30 -44 0
-30 -45 0
-30 -46 0
-30 -47 0
-30 -48 0
-30 -49 0
-30 -50 0
-30 -51 0
-30 -52 0
-31 -32 0
-31 -33 0
-31 -34 0
-31 -35 0
-31 -36 0
-31 -37 0
-31 -38 0
-31 -39 0
-31 -40 0
-31 -41 0
-31 -42 0
-31 -43 0
-31 -44 0
-31 -45 0
-31 -46 0
-31 -47 0
-31 -48 0
-31 -49 0
-31 -50 0
-31 -51 0
-31 -52 0
-32 -33 0
-32 -34 0
-32 -35 0
-32 -36 0
-32 -37 0
-32 -38 0
-32 -39 0
-32 -40 0
-32 -41 0
-32 -42 0
-32 -43 0
-32 -44 0
-32 -45 0
-32 -46 0
-32 -47 0
-32 -48 0
-32 -49 0
-32 -50 0
-32 -51 0
-32 -52 0
-33 -34 0
-33 -35 0
-33 -36 0
-33 -37 0
-33 -38 0
-33 -39 0
-33 -40 0
-33 -41 0
-33 -42 0
-33 -43 0
-33 -44 0
-33 -45 0
-33 -46 0
-33 -47 0
-33 -48 0
-33 -49 0
-33 -50 0
-33 -51 0
-33 -52 0
-34 -35 0
-34 -36 0
-34 -37 0
-34 -38 0
-34 -39 0
-34 -40 0
-34 -41 0
-34 -42 0
-34 -43 0
-34 -44 0
-34 -45 0
-34 -46 0
-34 -47 0
-34 -48 0
-34 -49 0
-34 -50 0
-34 -51 0
-34 -52 0
-35 -36 0
-35 -37 0
-35 -38 0
-35 -39 0
-35 -40 0
-35 -41 0
-35 -42 0
-35 -43 0
-35 -44 0
-35 -45 0
-35 -46 0
-35 -47 0
-35 -48 0
-35 -49 0
-35 -50 0
-35 -51 0
-35 -52 0
-36 -37 0
-36 -38 0
-36 -39 0
-36 -40 0
-36 -41 0
-36 -42 0
-36 -43 0
-36 -44 0
-36 -45 0
-36 -46 0
-36 -47 0
-36 -48 0
-36 -49 0
-36 -50 0
-36 -51 0
-36 -52 0
-37 -38 0
-37 -39 0
-37 -40 0
-37 -41 0
-37 -42 0
-37 -43 0
-37 -44 0
-37 -45 0
-37 -46 0
-37 -47 0
-37 -48 0
-37 -49 0
-37 -50 0
-37 -51 0
-37 -52 0
-38 -39 0
-38 -40 0
-38 -41 0
-38 -42 0
-38 -43 0
-38 -44 0
-38 -45 0
-38 -46 0
-38 -47 0
-38 -48 0
-38 -49 0
-38 -50 0
-38 -51 0
-38 -52 0
-39 -40 0
-39 -41 0
-39 -42 0
-39 -43 0
-39 -44 0
-39 -45 0
-39 -46 0
-39 -47 0
-39 -48 0
-39 -49 0
-39 -50 0
-39 -51 0
-39 -52 0
-40 -41 0
-40 -42 0
-40 -43 0
-40 -44 0
-40 -45 0
-40 -46 0
-40 -47 0
-40 -48 0
-40 -49 0
-40 -50 0
-40 -51 0
-40 -52 0
-41 -42 0
-41 -43 0
-41 -44 0
-41 -45 0
-41 -46 0
-41 -47 0
-41 -48 0
-41 -49 0
-41 -50 0
-41 -51 0
-41 -52 0
-42 -43 0
-42 -44 0
-42 -45 0
-42 -46 0
-42 -47 0
-42 -48 0
-42 -49 0
-42 -50 0
-42 -51 0
-42 -52 0
-43 -44 0
-43 -45 0
-43 -46 0
-43 -47 0
-43 -48 0
-43 -49 0
-43 -50 0
-43 -51 0
-43 -52 0
-44 -45 0
-44 -46 0
-44 -47 0
-44 -48 0
-44 -49 0
-44 -50 0
-44 -51 0
-44 -52 0
-45 -46 0
-45 -47 0
-45 -48 0
-45 -49 0
-45 -50 0
-45 -51 0
-45 -52 0
-46 -47 0
-46 -48 0
-46 -49 0
-46 -50 0
-46 -51 0
-46 -52 0
-47 -48 0
-47 -49 0
-47 -50 0
-47 -51 0
-47 -52 0
-48 -49 0
-48 -50 0
-48 -51 0
-48 -52 0
-49 -50 0
-49 -51 0
-49 -52 0
-50 -51 0
-50 -52 0
-51 -52 0
-29 -9 0
-29 -10 0
-29 -11 0
-29 12 0
-29 -13 0
-29 -14 0
-29 -15 0
-29 16 0
-30 -9 0
-30 10 0
-30 -11 0
-30 -12 0
-30 -13 0
-30 14 0
-30 -15 0
-30 -16 0
-31 -9 0
-31 -10 0
-31 11 0
-31 -12 0
-31 -13 0
-31 -14 0
-31 15 0
-31 -16 0
-32 9 0
-32 -10 0
-32 -11 0
-32 -12 0
-32 13 0
-32 -14 0
-32 -15 0
-32 -16 0
-33 -9 0
-33 -10 0
-33 -11 0
-33 -12 0
-33 -13 0
-33 14 0
-33 -15 0
-33 16 0
-34 -9 0
-34 10 0
-34 -11 0
-34 12 0
-34 -13 0
-34 -14 0
-34 -15 0
-34 -16 0
-35 -9 0
-35 -10 0
-35 -11 0
-35 -12 0
-35 13 0
-35 -14 0
-35 15 0
-35 -16 0
-36 9 0
-36 -10 0
-36 11 0
-36 -12 0
-36 -13 0
-36 -14 0
-36 -15 0
-36 -16 0
-37 -9 0
-37 -10 2 0
-37 10 -2 0
-37 -11 0
-37 -12 4 0
-37 12 -4 0
-37 -13 0
-37 -14 6 0
-37 14 -6 0
-37 -15 0
-37 -16 8 0
-37 16 -8 0
-38 -9 0
-38 -10 -2 0
-38 10 2 0
-38 -11 0
-38 -12 -4 0
-38 12 4 0
-38 -13 0
-38 -14 -6 0
-38 14 6 0
-38 -15 0
-38 -16 -8 0
-38 16 8 0
-39 -9 1 0
-39 9 -1 0
-39 -10 0
-39 -11 3 0
-39 11 -3 0
-39 -12 0
-39 -13 5 0
-39 13 -5 0
-39 -14 0
-39 -15 7 0
-39 15 -7 0
-39 -16 0
-40 -9 -1 0
-40 9 1 0
-40 -10 0
-40 -11 -3 0
-40 11 3 0
-40 -12 0
-40 -13 -5 0
-40 13 5 0
-40 -14 0
-40 -15 -7 0
-40 15 7 0
-40 -16 0
-41 -9 0
-41 -10 0
-41 -11 0
-41 -12 0
-41 -13 0
-41 -14 0
-41 15 0
-41 16 0
-42 -9 0
-42 -10 0
-42 11 0
-42 12 0
-42 -13 0
-42 -14 0
-42 -15 0
-42 -16 0
-43 -9 0
-43 -10 0
-43 -11 0
-43 -12 0
-43 13 0
-43 14 0
-43 -15 0
-43 -16 0
-44 9 0
-44 10 0
-44 -11 0
-44 -12 0
-44 -13 0
-44 -14 0
-44 -15 0
-44 -16 0
-45 -9 0
-45 -10 0
-45 -11 3 0
-45 11 -3 0
-45 -12 4 0
-45 12 -4 0
-45 -13 0
-45 -14 0
-45 -15 7 0
-45 15 -7 0
-45 -16 8 0
-45 16 -8 0
-46 -9 0
-46 -10 0
-46 -11 -3 0
-46 11 3 0
-46 -12 -4 0
-46 12 4 0
-46 -13 0
-46 -14 0
-46 -15 -7 0
-46 15 7 0
-46 -16 -8 0
-46 16 8 0
-47 -9 1 0
-47 9 -1 0
-47 -10 2 0
-47 10 -2 0
-47 -11 0
-47 -12 0
-47 -13 5 0
-47 13 -5 0
-47 -14 6 0
-47 14 -6 0
-47 -15 0
-47 -16 0
-48 -9 -1 0
-48 9 1 0
-48 -10 -2 0
-48 10 2 0
-48 -11 0
-48 -12 0
-48 -13 -5 0
-48 13 5 0
-48 -14 -6 0
-48 14 6 0
-48 -15 0
-48 -16 0
-49 -9 0
-49 -10 0
-49 -11 0
-49 -12 0
-49 -13 5 0
-49 13 -5 0
-49 -14 6 0
-49 14 -6 0
-49 -15 7 0
-49 15 -7 0
-49 -16 8 0
-49 16 -8 0
-50 -9 0
-50 -10 0
-50 -11 0
-50 -12 0
-50 -13 -5 0
-50 13 5 0
-50 -14 -6 0
-50 14 6 0
-50 -15 -7 0
-50 15 7 0
-50 -16 -8 0
-50 16 8 0
-51 -9 1 0
-51 9 -1 0
-51 -10 2 0
-51 10 -2 0
-51 -11 3 0
-51 11 -3 0
-51 -12 4 0
-51 12 -4 0
-51 -13 0
-51 -14 0
-51 -15 0
-51 -16 0
-52 -9 -1 0
-52 9 1 0
-52 -10 -2 0
-52 10 2 0
-52 -11 -3 0
-52 11 3 0
-52 -12 -4 0
-52 12 4 0
-52 -13 0
-52 -14 0
-52 -15 0
-52 -16 0
-17 -29 0
-18 -30 0
-19 -31 0
-20 -32 0
-21 -33 0
-22 -34 0
-23 -35 0
-24 -36 0
-25 -41 0
-26 -42 0
-27 -43 0
-28 -44 0
37 38 39 40 45 46 47 48 49 50 51 52 0
53 -9 0
-53 9 0
53 10 0
-53 -10 0
53 11 0
-53 -11 0
53 -12 0
-53 12 0
53 -13 0
-53 13 0
53 -14 0
-53 14 0
53 -15 0
-53 15 0
53 -16 0
-53 16 0
